boundary p p p

units metal
atom_style atomic

lattice fcc 10
region space block -20 20 -20 20 -20 20 units lattice
create_box 1 space
create_atoms 1 region space

pair_style eam/alloy
pair_coeff * * Au-Grochola-JCP05.eam.alloy Au

dump 10 all atom 1 *.dump
thermo 100

fix holdx all deform 1 x delta 0 0
fix holdx all deform 1 x delta 0 0
fix holdx all deform 1 x delta 0 0

minimize 1e-5 1e-7 1000 10000